# Solution for model GasLib-40
# Objective value = 1.4958756224240510e+01
loadshed[innode_1] 0
loadshed[innode_2] 0
loadshed[innode_3] 0
loadshed[innode_4] 0
loadshed[innode_5] 0
loadshed[innode_6] 0
loadshed[innode_7] 0
loadshed[innode_8] 0
loadshed[source_1] -1.4821570241330262e-01
loadshed[source_2] 1.6087048030380857e-02
loadshed[source_3] 2.2675026195109682e-01
loadshed[sink_1] 0
loadshed[sink_2] 0
loadshed[sink_3] 0
loadshed[sink_4] 0
loadshed[sink_5] 0
loadshed[sink_6] 0
loadshed[sink_7] 0
loadshed[sink_8] 0
loadshed[sink_9] 0
loadshed[sink_10] 0
loadshed[sink_11] 0
loadshed[sink_12] 9.1467553982617122e-01
loadshed[sink_13] 0
loadshed[sink_14] 0
loadshed[sink_15] 0
loadshed[sink_16] 0
loadshed[sink_17] 0
loadshed[sink_18] 0
loadshed[sink_19] 0
loadshed[sink_20] 0
loadshed[sink_21] 0
loadshed[sink_22] 0
loadshed[sink_23] 0
loadshed[sink_24] 0
loadshed[sink_25] 0
loadshed[sink_26] 0
loadshed[sink_27] 0
loadshed[sink_28] 0
loadshed[sink_29] 0
flow[source_1,sink_3] 1.8152173934332524e+02
flow[innode_1,sink_16] 1.6354166666666970e+01
flow[innode_6,sink_13] -7.7640992130775928e+00
flow[sink_13,sink_14] -2.4118265879744261e+01
flow[sink_14,sink_10] -4.0472432546410928e+01
flow[sink_25,sink_26] 2.3035374377576204e+02
flow[sink_26,sink_9] 1.4858291044242702e+02
flow[sink_9,sink_18] 1.3222874377576036e+02
flow[sink_26,sink_4] 6.5416666666666671e+01
flow[sink_4,sink_20] 0
flow[sink_18,sink_6] 1.1587457710909371e+02
flow[sink_25,innode_8] -1.4881340600998888e+02
flow[sink_6,sink_7] 6.6812077109093025e+01
flow[sink_6,sink_22] 3.2708333333333641e+01
flow[sink_7,sink_24] 34.1037437757595
flow[sink_22,sink_1] 1.6354166666666970e+01
flow[sink_24,sink_21] 1.7749577109092826e+01
flow[sink_21,sink_12] 1.3954104424261584e+00
flow[sink_7,sink_5] 1.6354166666667368e+01
flow[sink_5,sink_17] 0
flow[sink_17,sink_4] -4.9062500000001620e+01
flow[sink_17,sink_8] 3.2708333333334949e+01
flow[sink_3,sink_23] 16.3541666666697
flow[sink_8,sink_20] 1.6354166666668277e+01
flow[sink_25,sink_20] 0
flow[sink_25,sink_15] -9.0130405219362530e+01
flow[sink_15,sink_29] -5.9753410643232705e+01
flow[sink_29,sink_28] 1.6354166666667879e+01
flow[sink_29,sink_2] 6.3085327909463160e+01
flow[sink_2,sink_15] 4.6731161242796496e+01
flow[sink_29,innode_7] -1.5554707188603041e+02
flow[innode_4,sink_19] 4.7513144419772978e+01
flow[sink_19,innode_3] 4.3692669155905712e+01
flow[innode_4,innode_5] 7.4730121459972025e+01
flow[sink_27,innode_5] -7.4730121459972025e+01
flow[sink_27,sink_19] 5.8375954793305361e+01
flow[sink_10,sink_11] 3.2708333333333641e+01
flow[sink_10,innode_2] -4.5842263390505543e+01
flow[sink_10,innode_3] -4.3692669155905712e+01
flow[innode_6,sink_25] 7.7640992130775928e+00
flow[sink_11,innode_1] 1.6354166666666970e+01
flow[sink_19,innode_2] 4.5842263390505543e+01
flow[source_3,innode_4] 122.243265879745
flow[source_2,innode_7] 1.5554707188603041e+02
flow[sink_3,innode_8] 1.4881340600998888e+02
pressure[innode_1] 7.6513717192832246e+01
pressure[innode_2] 7.9088371455373007e+01
pressure[innode_3] 7.8991618987185248e+01
pressure[innode_4] 81.01325
pressure[innode_5] 8.0961846681928321e+01
pressure[innode_6] 7.4665165397520823e+01
pressure[innode_7] 81.01325
pressure[innode_8] 8.0406492169193129e+01
pressure[source_1] 81.01325
pressure[source_2] 81.01325
pressure[source_3] 81.01325
pressure[sink_1] 3.9568711948332513e+01
pressure[sink_2] 7.5254952629945208e+01
pressure[sink_3] 8.0406492169193129e+01
pressure[sink_4] 5.0124242196753961e+01
pressure[sink_5] 3.3951048969005562e+01
pressure[sink_6] 4.1669789558719884e+01
pressure[sink_7] 4.0752618995900278e+01
pressure[sink_8] 4.7015064834519670e+01
pressure[sink_9] 4.9548415830730740e+01
pressure[sink_10] 7.6665418500435791e+01
pressure[sink_11] 7.6513717192832246e+01
pressure[sink_12] 1.01325
pressure[sink_13] 7.4707967578981012e+01
pressure[sink_14] 7.4751129270194809e+01
pressure[sink_15] 7.5102385687869528e+01
pressure[sink_16] 7.5492067358014566e+01
pressure[sink_17] 4.8249235225346851e+01
pressure[sink_18] 4.4763985771488016e+01
pressure[sink_19] 7.9088371455373007e+01
pressure[sink_20] 4.5875409410931383e+01
pressure[sink_21] 1.5098134065262232e+00
pressure[sink_22] 4.0632481090687520e+01
pressure[sink_23] 8.0241774157533342e+01
pressure[sink_24] 1.7063734816854981e+00
pressure[sink_25] 7.4665165397520823e+01
pressure[sink_26] 5.8441486502645610e+01
pressure[sink_27] 8.0341724760227407e+01
pressure[sink_28] 7.6557692908385533e+01
pressure[sink_29] 7.6852975182002723e+01
interdiction[source_1,sink_3] 0
interdiction[innode_1,sink_16] 0
interdiction[innode_6,sink_13] 0
interdiction[sink_13,sink_14] 0
interdiction[sink_14,sink_10] 0
interdiction[sink_25,sink_26] 0
interdiction[sink_26,sink_9] 0
interdiction[sink_9,sink_18] 0
interdiction[sink_26,sink_4] 0
interdiction[sink_4,sink_20] 1
interdiction[sink_18,sink_6] 0
interdiction[sink_25,innode_8] 0
interdiction[sink_6,sink_7] 0
interdiction[sink_6,sink_22] 0
interdiction[sink_7,sink_24] 0
interdiction[sink_22,sink_1] 0
interdiction[sink_24,sink_21] 0
interdiction[sink_21,sink_12] 0
interdiction[sink_7,sink_5] 0
interdiction[sink_5,sink_17] 1
interdiction[sink_17,sink_4] 0
interdiction[sink_17,sink_8] 0
interdiction[sink_3,sink_23] 0
interdiction[sink_8,sink_20] 0
interdiction[sink_25,sink_20] 1
interdiction[sink_25,sink_15] 0
interdiction[sink_15,sink_29] 0
interdiction[sink_29,sink_28] 0
interdiction[sink_29,sink_2] 0
interdiction[sink_2,sink_15] 0
interdiction[sink_29,innode_7] 0
interdiction[innode_4,sink_19] 0
interdiction[sink_19,innode_3] 0
interdiction[innode_4,innode_5] 0
interdiction[sink_27,innode_5] 0
interdiction[sink_27,sink_19] 0
interdiction[sink_10,sink_11] 0
interdiction[sink_10,innode_2] 0
interdiction[sink_10,innode_3] 0
interdiction[innode_6,sink_25] 0
interdiction[sink_11,innode_1] 0
interdiction[sink_19,innode_2] 0
interdiction[source_3,innode_4] 0
interdiction[source_2,innode_7] 0
interdiction[sink_3,innode_8] 0
WCcheckFlow[source_1,sink_3] 39
WCcheckFlow[innode_1,sink_16] 1
WCcheckFlow[innode_6,sink_13] 13
WCcheckFlow[sink_13,sink_14] 12
WCcheckFlow[sink_14,sink_10] 11
WCcheckFlow[sink_25,sink_26] 15
WCcheckFlow[sink_26,sink_9] 10
WCcheckFlow[sink_9,sink_18] 9
WCcheckFlow[sink_26,sink_4] 4
WCcheckFlow[sink_4,sink_20] 0
WCcheckFlow[sink_18,sink_6] 8
WCcheckFlow[sink_25,innode_8] -36
WCcheckFlow[sink_6,sink_7] 5
WCcheckFlow[sink_6,sink_22] 2
WCcheckFlow[sink_7,sink_24] 3
WCcheckFlow[sink_22,sink_1] 1
WCcheckFlow[sink_24,sink_21] 2
WCcheckFlow[sink_21,sink_12] 1
WCcheckFlow[sink_7,sink_5] 1
WCcheckFlow[sink_5,sink_17] 0
WCcheckFlow[sink_17,sink_4] -3
WCcheckFlow[sink_17,sink_8] 2
WCcheckFlow[sink_3,sink_23] 1
WCcheckFlow[sink_8,sink_20] 1
WCcheckFlow[sink_25,sink_20] 0
WCcheckFlow[sink_25,sink_15] 6
WCcheckFlow[sink_15,sink_29] 5
WCcheckFlow[sink_29,sink_28] 1
WCcheckFlow[sink_29,sink_2] 1
WCcheckFlow[sink_2,sink_15] 0
WCcheckFlow[sink_29,innode_7] 2
WCcheckFlow[innode_4,sink_19] -4
WCcheckFlow[sink_19,innode_3] -5
WCcheckFlow[innode_4,innode_5] 2
WCcheckFlow[sink_27,innode_5] -1
WCcheckFlow[sink_27,sink_19] 0
WCcheckFlow[sink_10,sink_11] 3
WCcheckFlow[sink_10,innode_2] 1
WCcheckFlow[sink_10,innode_3] 6
WCcheckFlow[innode_6,sink_25] -14
WCcheckFlow[sink_11,innode_1] 2
WCcheckFlow[sink_19,innode_2] 0
WCcheckFlow[source_3,innode_4] -1
WCcheckFlow[source_2,innode_7] -1
WCcheckFlow[sink_3,innode_8] 37
